results/real/sos1/feb_53_393.in
Version identifier: 22.1.0.0 | 2022-03-09 | 1a383f8ce
CPXPARAM_Threads                                 1
CPXPARAM_MIP_Strategy_VariableSelect             3
CPXPARAM_TimeLimit                               599.99997088099997
1 of 1 MIP starts provided solutions.
MIP start 'm1' defined initial solution with objective 296.0000.
Tried aggregator 2 times.
MIP Presolve eliminated 827 rows and 2359 columns.
MIP Presolve added 36 rows and 9 columns.
MIP Presolve modified 25 coefficients.
Aggregator did 9 substitutions.
Reduced MIP has 1964 rows, 2751 columns, and 94404 nonzeros.
Reduced MIP has 2751 binaries, 0 generals, 0 SOSs, and 0 indicators.
Presolve time = 0.13 sec. (188.22 ticks)
Probing time = 0.01 sec. (12.72 ticks)
Tried aggregator 1 time.
Detecting symmetries...
MIP Presolve modified 7 coefficients.
Reduced MIP has 1964 rows, 2751 columns, and 94504 nonzeros.
Reduced MIP has 2751 binaries, 0 generals, 0 SOSs, and 0 indicators.
Presolve time = 0.08 sec. (136.80 ticks)
Probing time = 0.01 sec. (12.73 ticks)
Clique table members: 1178.
MIP emphasis: balance optimality and feasibility.
MIP search method: dynamic search.
Parallel mode: none, using 1 thread.
Root relaxation solution time = 0.02 sec. (24.24 ticks)

        Nodes                                         Cuts/
   Node  Left     Objective  IInf  Best Integer    Best Bound    ItCnt     Gap

*     0+    0                          296.0000    77421.0000              --- 
*     0     0      integral     0      393.0000      393.0000      348    0.00%
Elapsed time = 0.34 sec. (446.20 ticks, tree = 0.00 MB, solutions = 2)

Root node processing (before b&c):
  Real time             =    0.34 sec. (446.39 ticks)
Sequential b&c:
  Real time             =    0.00 sec. (0.00 ticks)
                          ------------
Total (root+branch&cut) =    0.34 sec. (446.39 ticks)
Primal:	393
Dual:	393
Status:	Optimal
Time:	0.36
Sequence:
	0
	4
	1
	4
	4
	0
	4
	10
	9
	4
	4
	0
	4
	9
	9
	9
	10
	4
	10
	0
	4
	10
	4
	10
	9
	10
	4
	4
	0
	4
	9
	4
	9
	4
	4
	9
	4
	4
	9
	4
	9
	4
	4
	9
	4
	4
	9
	4
	4
	9
	9
	9
	10
	9
	9
	9
	9
	9
	0
	9
	9
	4
	9
	9
	9
	9
	1
	4
	4
	1
	9
	9
	9
	4
	9
	1
	9
	9
	9
	9
	9
	9
	9
	9
	9
	9
	9
	9
	9
	9
	4
	9
	4
	10
	9
	9
	9
	9
	10
	4
	4
	0
	4
	4
	0
	9
	4
	4
	10
	0
	4
	10
	4
	10
	4
	1
	4
	10
	4
	0
	4
	4
	0
	4
	1
	4
	4
	0
	1
	4
	4
	0
	4
	9
	4
	1
	4
	9
	4
	1
	4
	10
	4
	1
	4
	4
	9
	10
	0
	4
	4
	9
	4
	4
	9
	4
	9
	4
	4
	9
	4
	4
	10
	4
	4
	0
	4
	4
	9
	4
	0
	4
	9
	9
	9
	4
	9
	4
	9
	4
	9
	4
	9
	4
	1
	4
	4
	9
	4
	0
	4
	4
	9
	4
	4
	9
	4
	9
	9
	4
	9
	9
	9
	9
	9
	0
	9
	9
	9
	9
	9
	9
	9
	9
	9
	9
	9
	0
	9
	9
	9
	9
	9
	9
	9
	10
	4
	9
	9
	9
	0
	9
	9
	4
	4
	10
	4
	4
	9
	1
	9
	9
	9
	0
	10
	9
	10
	9
	9
	1
	0
	1
	9
	1
	0
	10
	9
	0
	1
	9
	1
	0
	10
	9
	0
	10
	4
	9
	10
	9
	0
	9
	9
	10
	9
	10
	0
	9
	10
	4
	6
	0
	1
	9
	0
	9
	9
	0
	9
	4
	0
	4
	4
	9
	4
	4
	9
	4
	9
	4
	4
	9
	4
	4
	0
	4
	9
	4
	4
	9
	4
	9
	9
	9
	1
	9
	4
	9
	4
	4
	9
	4
	10
	4
	4
	9
	4
	9
	4
	4
	9
	4
	4
	9
	4
	4
	9
	4
	4
	9
	4
	0
	4
	9
	4
	4
	9
	4
	4
	9
	9
	1
	4
	9
	1
	9
	1
	9
	1
	9
	4
	0
	4
	9
	9
	0
	4
	9
	9
	9
	9
	9
	9
	9
	9
	9
	9
	1
	9
	9
	1
	9
	1
	4
	9
	1
	9
	9
	1
	9
	10
	4
	10
