results/real/sos1/feb_53_393.out
Version identifier: 22.1.1.0 | 2022-11-28 | 9160aff4d
CPXPARAM_Threads                                 1
CPXPARAM_MIP_Strategy_VariableSelect             3
CPXPARAM_TimeLimit                               599.99995712800001
1 of 1 MIP starts provided solutions.
MIP start 'm1' defined initial solution with objective 296.0000.
Tried aggregator 1 time.
MIP Presolve eliminated 799 rows and 2358 columns.
MIP Presolve modified 17 coefficients.
Reduced MIP has 1572 rows, 2751 columns, and 92032 nonzeros.
Reduced MIP has 2751 binaries, 0 generals, 0 SOSs, and 0 indicators.
Presolve time = 0.13 sec. (149.29 ticks)
Probing time = 0.02 sec. (12.72 ticks)
Tried aggregator 1 time.
Detecting symmetries...
MIP Presolve modified 5 coefficients.
Reduced MIP has 1572 rows, 2751 columns, and 92127 nonzeros.
Reduced MIP has 2751 binaries, 0 generals, 0 SOSs, and 0 indicators.
Presolve time = 0.11 sec. (133.74 ticks)
Probing time = 0.02 sec. (12.72 ticks)
Clique table members: 786.
MIP emphasis: balance optimality and feasibility.
MIP search method: dynamic search.
Parallel mode: none, using 1 thread.
Root relaxation solution time = 0.02 sec. (25.43 ticks)

        Nodes                                         Cuts/
   Node  Left     Objective  IInf  Best Integer    Best Bound    ItCnt     Gap

*     0+    0                          296.0000    77421.0000              --- 
*     0     0      integral     0      393.0000      393.0000      354    0.00%
Elapsed time = 0.38 sec. (404.33 ticks, tree = 0.00 MB, solutions = 2)

Root node processing (before b&c):
  Real time             =    0.39 sec. (404.52 ticks)
Sequential b&c:
  Real time             =    0.00 sec. (0.00 ticks)
                          ------------
Total (root+branch&cut) =    0.39 sec. (404.52 ticks)
Primal:	393
Dual:	393
Status:	Optimal
Time:	0.42
Sequence:
	0
	9
	4
	4
	0
	4
	4
	9
	9
	4
	0
	4
	4
	10
	4
	10
	9
	4
	9
	4
	4
	9
	4
	9
	0
	9
	4
	4
	9
	4
	4
	9
	4
	9
	4
	10
	4
	10
	4
	10
	4
	10
	4
	10
	4
	4
	9
	4
	9
	4
	9
	9
	4
	4
	10
	10
	10
	9
	10
	4
	9
	9
	9
	4
	9
	9
	9
	9
	9
	9
	9
	9
	9
	9
	9
	4
	9
	9
	9
	4
	4
	9
	4
	4
	9
	9
	9
	9
	4
	9
	4
	4
	9
	9
	4
	4
	9
	4
	9
	4
	4
	9
	0
	4
	4
	0
	4
	4
	9
	4
	4
	0
	4
	4
	9
	4
	4
	10
	4
	0
	4
	4
	0
	4
	1
	4
	10
	0
	4
	4
	0
	4
	4
	9
	10
	0
	10
	4
	1
	0
	4
	4
	0
	9
	4
	4
	10
	4
	0
	4
	9
	4
	4
	9
	4
	4
	9
	4
	4
	9
	4
	4
	9
	4
	4
	9
	4
	9
	4
	4
	9
	4
	4
	9
	4
	4
	9
	4
	4
	9
	4
	4
	9
	4
	4
	9
	4
	4
	9
	4
	4
	9
	4
	9
	4
	9
	4
	0
	9
	4
	9
	9
	9
	9
	9
	4
	4
	0
	9
	4
	9
	9
	9
	9
	9
	9
	9
	10
	9
	9
	9
	9
	4
	9
	9
	0
	9
	4
	9
	9
	9
	9
	9
	9
	9
	9
	4
	4
	9
	9
	9
	9
	0
	4
	4
	10
	4
	10
	9
	10
	1
	9
	9
	9
	1
	0
	9
	1
	0
	9
	1
	4
	0
	4
	6
	1
	0
	9
	1
	0
	1
	9
	0
	9
	10
	0
	1
	9
	9
	4
	1
	0
	9
	1
	1
	1
	9
	1
	9
	1
	1
	0
	9
	9
	4
	0
	4
	4
	0
	9
	9
	9
	4
	9
	4
	4
	9
	4
	4
	9
	4
	4
	9
	9
	9
	10
	10
	9
	10
	10
	9
	10
	10
	1
	9
	9
	4
	9
	4
	9
	4
	9
	4
	9
	9
	9
	9
	4
	10
	9
	1
	9
	1
	1
	4
	1
	1
	9
	1
	1
	1
	9
	0
	9
	9
	9
	9
	9
	9
	4
	9
	9
	9
	0
	9
	10
	1
	0
	9
	9
	0
	4
	4
	9
	9
	9
	9
	0
	9
	4
	9
	9
	9
	9
	9
	9
	9
	9
	4
	10
	9
	1
	0
